
n_res = 6;
rcap = [26, 23, 28, 26, 788, 745];
rtype = [1, 1, 1, 1, 2, 2];
n_tasks = 50;
modes =  [{1, 2, 3}, {4, 5, 6}, {7, 8, 9}, {10, 11, 12}, {13, 14, 15}, {16, 17, 18}, {19, 20, 21}, {22, 23, 24}, {25, 26, 27}, {28, 29, 30}, {31, 32, 33}, {34, 35, 36}, {37, 38, 39}, {40, 41, 42}, {43, 44, 45}, {46, 47, 48}, {49, 50, 51}, {52, 53, 54}, {55, 56, 57}, {58, 59, 60}, {61, 62, 63}, {64, 65, 66}, {67, 68, 69}, {70, 71, 72}, {73, 74, 75}, {76, 77, 78}, {79, 80, 81}, {82, 83, 84}, {85, 86, 87}, {88, 89, 90}, {91, 92, 93}, {94, 95, 96}, {97, 98, 99}, {100, 101, 102}, {103, 104, 105}, {106, 107, 108}, {109, 110, 111}, {112, 113, 114}, {115, 116, 117}, {118, 119, 120}, {121, 122, 123}, {124, 125, 126}, {127, 128, 129}, {130, 131, 132}, {133, 134, 135}, {136, 137, 138}, {139, 140, 141}, {142, 143, 144}, {145, 146, 147}, {148, 149, 150}];
succ =  [{33, 24, 22, 19, 16, 14, 13, 9}, {32, 24, 22, 18, 16, 10, 6}, {18, 17, 8, 5}, {32, 24, 22, 11, 10}, {32, 23, 22, 19, 14}, {33, 28, 15, 11}, {33, 32, 29, 28, 24, 23, 15}, {38, 33, 26, 25, 24, 19}, {20, 18, 15}, {29, 28, 26, 25, 23, 15}, {38, 37, 36, 30, 29, 26, 25, 23}, {38, 15}, {40, 37, 30, 29, 28, 27, 26}, {38, 37, 31, 28, 27, 26}, {49, 48, 40, 37, 36, 31, 30, 27}, {50, 49, 47, 40, 37, 29, 28, 27}, {46, 37, 36, 34, 31, 29, 24}, {47, 40, 38, 37, 36, 30, 29, 27}, {49, 47, 46, 37, 34, 30, 29, 28}, {31, 26, 25}, {50, 49, 40, 36, 29, 27}, {49, 48, 47, 40, 25}, {49, 48, 40, 39, 35, 31}, {50, 49, 47, 45, 40, 39, 35}, {45, 27}, {49, 48, 47, 46, 45, 44, 43, 42}, {46, 42, 35, 34}, {42, 39, 36, 35}, {48, 44, 43, 39}, {44, 43, 42, 39}, {50, 47, 42, 41}, {46, 44, 43, 41}, {45, 42, 41}, {44, 39}, {44, 43}, {45, 41}, {45, 43}, {45, 42}, {41}, {42}, {}, {}, {}, {}, {}, {}, {}, {}, {}, {}];
n_opt = 150;
dur = [3, 12, 15, 6, 7, 29, 1, 4, 7, 12, 17, 29, 11, 20, 26, 9, 16, 18, 8, 10, 19, 1, 15, 16, 3, 11, 19, 1, 12, 21, 16, 26, 28, 6, 9, 20, 5, 10, 12, 2, 7, 29, 3, 6, 30, 19, 21, 26, 5, 7, 28, 4, 6, 30, 13, 20, 23, 6, 23, 28, 6, 16, 21, 9, 23, 25, 1, 10, 13, 9, 12, 16, 16, 19, 29, 10, 14, 15, 9, 15, 22, 9, 11, 22, 4, 11, 16, 4, 5, 20, 3, 13, 15, 2, 14, 27, 5, 10, 27, 4, 13, 24, 4, 15, 18, 2, 10, 28, 4, 8, 27, 19, 22, 28, 16, 26, 30, 9, 10, 25, 6, 25, 30, 20, 29, 30, 2, 8, 18, 19, 21, 25, 4, 28, 30, 1, 4, 23, 2, 18, 19, 17, 19, 28, 1, 23, 27, 14, 15, 18];
rreq = [|4, 3, 2, 4, 3, 2, 4, 3, 3, 3, 2, 2, 5, 5, 5, 4, 3, 3, 3, 2, 2, 4, 4, 3, 2, 2, 2, 5, 4, 4, 3, 3, 2, 2, 1, 1, 4, 4, 4, 5, 4, 3, 3, 3, 3, 3, 2, 2, 4, 4, 4, 3, 3, 3, 3, 3, 3, 2, 1, 1, 5, 4, 3, 3, 3, 2, 4, 4, 4, 2, 1, 1, 1, 1, 1, 4, 3, 2, 1, 1, 1, 3, 3, 1, 3, 2, 2, 5, 4, 4, 3, 2, 2, 3, 3, 2, 3, 3, 1, 5, 5, 5, 5, 4, 3, 4, 3, 2, 3, 2, 2, 3, 2, 2, 5, 5, 5, 4, 3, 2, 4, 3, 3, 2, 1, 1, 4, 4, 4, 2, 2, 2, 4, 3, 2, 5, 3, 1, 3, 3, 3, 2, 1, 1, 3, 2, 2, 1, 1, 1
 |5, 5, 5, 2, 1, 1, 4, 4, 4, 5, 3, 2, 5, 3, 3, 1, 1, 1, 3, 3, 2, 4, 3, 3, 2, 2, 2, 2, 2, 1, 4, 4, 3, 3, 2, 2, 4, 3, 1, 2, 2, 2, 3, 3, 3, 3, 3, 2, 1, 1, 1, 4, 2, 2, 5, 4, 4, 2, 2, 2, 1, 1, 1, 2, 1, 1, 4, 4, 4, 3, 3, 3, 4, 3, 3, 5, 2, 1, 3, 3, 2, 3, 1, 1, 2, 1, 1, 3, 2, 1, 1, 1, 1, 4, 4, 3, 3, 3, 2, 1, 1, 1, 3, 3, 2, 3, 2, 1, 4, 4, 4, 2, 2, 2, 2, 2, 2, 3, 2, 1, 4, 3, 2, 4, 2, 1, 5, 5, 5, 3, 2, 2, 5, 3, 3, 3, 2, 1, 2, 2, 2, 4, 2, 2, 4, 4, 4, 4, 3, 1
 |3, 1, 1, 2, 1, 1, 3, 2, 2, 5, 5, 5, 3, 3, 2, 5, 4, 4, 3, 1, 1, 4, 3, 1, 5, 3, 2, 3, 2, 2, 1, 1, 1, 5, 4, 4, 5, 4, 4, 4, 2, 2, 3, 2, 2, 5, 4, 4, 3, 1, 1, 4, 4, 4, 4, 4, 4, 5, 4, 4, 5, 3, 3, 3, 3, 3, 5, 5, 5, 3, 3, 3, 3, 3, 3, 5, 3, 3, 4, 3, 2, 4, 3, 3, 4, 4, 4, 1, 1, 1, 3, 3, 3, 3, 3, 2, 5, 3, 2, 4, 3, 1, 3, 1, 1, 2, 1, 1, 3, 2, 2, 3, 2, 2, 5, 3, 3, 4, 4, 2, 2, 2, 2, 2, 2, 1, 5, 4, 4, 3, 3, 3, 3, 1, 1, 3, 2, 2, 3, 3, 2, 3, 3, 3, 4, 4, 3, 3, 1, 1
 |1, 1, 1, 3, 3, 3, 5, 5, 5, 2, 2, 2, 5, 4, 2, 5, 4, 4, 4, 3, 3, 2, 2, 2, 5, 3, 2, 2, 1, 1, 2, 1, 1, 4, 3, 3, 3, 2, 1, 5, 4, 3, 5, 3, 1, 1, 1, 1, 4, 2, 2, 2, 2, 2, 3, 3, 3, 5, 4, 3, 4, 3, 3, 3, 3, 2, 4, 3, 2, 3, 2, 1, 3, 3, 3, 4, 3, 2, 3, 3, 2, 3, 3, 2, 3, 3, 3, 5, 2, 2, 2, 2, 2, 4, 3, 3, 3, 3, 3, 4, 4, 3, 3, 2, 1, 4, 3, 3, 3, 3, 3, 3, 3, 2, 2, 2, 2, 5, 3, 1, 4, 4, 4, 4, 2, 2, 4, 3, 1, 2, 2, 2, 4, 4, 3, 3, 3, 1, 3, 3, 3, 4, 2, 2, 2, 1, 1, 3, 2, 2
 |21, 18, 18, 27, 27, 26, 23, 21, 19, 24, 18, 18, 25, 22, 15, 22, 11, 6, 20, 13, 8, 23, 22, 20, 24, 15, 10, 23, 22, 22, 12, 11, 10, 25, 17, 15, 21, 20, 12, 26, 20, 18, 8, 7, 5, 24, 21, 17, 11, 9, 3, 29, 28, 27, 26, 25, 25, 16, 10, 9, 16, 14, 8, 29, 29, 28, 21, 18, 17, 14, 12, 10, 20, 15, 11, 17, 16, 11, 24, 22, 8, 6, 5, 4, 21, 20, 17, 22, 16, 9, 16, 15, 14, 5, 4, 4, 24, 23, 20, 22, 16, 14, 12, 11, 8, 20, 18, 14, 18, 17, 17, 9, 7, 3, 13, 10, 6, 5, 5, 4, 18, 15, 8, 22, 22, 22, 12, 10, 7, 9, 7, 6, 15, 13, 12, 29, 26, 25, 29, 20, 15, 15, 7, 7, 12, 9, 4, 10, 9, 6
 |21, 16, 14, 18, 15, 9, 27, 19, 8, 29, 29, 29, 20, 14, 11, 18, 14, 12, 22, 16, 12, 22, 19, 18, 29, 21, 11, 23, 21, 21, 8, 8, 8, 20, 15, 11, 13, 10, 9, 21, 18, 14, 23, 19, 18, 26, 24, 21, 13, 13, 13, 16, 15, 13, 22, 16, 12, 27, 23, 16, 6, 3, 2, 9, 7, 7, 14, 14, 14, 5, 3, 3, 10, 10, 10, 11, 9, 9, 8, 7, 7, 22, 20, 15, 16, 11, 9, 6, 4, 3, 26, 25, 24, 24, 18, 8, 25, 13, 6, 24, 21, 10, 20, 17, 15, 14, 12, 4, 19, 14, 7, 13, 10, 6, 29, 27, 27, 20, 15, 10, 13, 9, 7, 4, 3, 2, 11, 10, 7, 22, 19, 16, 25, 20, 14, 26, 25, 22, 16, 14, 11, 27, 22, 11, 25, 15, 12, 3, 2, 2|];